GeneratedTests/Random_12/Random_12_19.tsp
NAME: Random_12_19
TYPE: TSP
DIMENSION: 12
EDGE_WEIGHT_TYPE: EUC_2D
NODE_COORD_SECTION
1 5.586754 7.3348694
2 30.722397 5.537013
3 17.019588 4.293124
4 11.095237 33.229126
5 29.33219 11.811092
6 26.401062 17.095314
7 31.262117 28.940628
8 30.665796 32.680817
9 6.532874 5.5450726
10 7.4251766 11.526864
11 19.0318 35.394257
12 5.332622 35.26221
EOF
