GeneratedTests/Random_12/Random_12_19.txt
NAME: Random_12_19
TYPE: TSP
DIMENSION: 12
EDGE_WEIGHT_TYPE: EUC_2D
NODE_COORD_SECTION
1 28.559044 18.618004
2 34.143078 23.020416
3 8.854378 24.880054
4 15.0922 26.994827
5 25.87879 31.752657
6 1.482444 27.36953
7 6.197544 22.275213
8 10.219956 9.214939
9 16.615532 35.280254
10 0.11622763 30.817417
11 4.6019 3.3204224
12 3.1535633 34.405666
EOF
